c Sudoku solution
p cnf 729 0
186 0
219 0
235 0
247 0
271 0
294 0
317 0
379 0
382 0
395 0
462 0
497 0
177 0
545 0
568 0
656 0
672 0
689 0
712 0
751 0
764 0
785 0
475 0
846 0
911 0
953 0
976 0
596 0
416 0
773 0
574 0
513 0
581 0
878 0
799 0
992 0
891 0
748 0
852 0
949 0
142 0
258 0
354 0
222 0
266 0
283 0
198 0
114 0
121 0
133 0
815 0
867 0
965 0
884 0
987 0
618 0
625 0
488 0
693 0
443 0
431 0
532 0
823 0
839 0
341 0
363 0
644 0
661 0
459 0
557 0
424 0
637 0
529 0
928 0
934 0
727 0
736 0
326 0
338 0
155 0
169 0
